\ENCODING=ISO-8859-1
\Problem name: 

Minimize
 obj: x_0 + x_1 + x_2 + x_3 + x_4 + x_5 + x_6 + x_7 + x_8 + x_9 + x_10 + x_11
      + x_12 + x_13 + x_14 + x_15 + x_16 + x_17 + x_18 + x_19 + x_20 + x_21
      + x_22 + x_23 + x_24 + x_25 + x_26 + x_27 + x_28 + x_29 + x_30 + x_31
      + x_32 + x_33 + x_34 + x_35 + x_36 + x_37 + x_38 + x_39 + x_40 + x_41
      + x_42 + x_43 + x_44 + x_45 + x_46 + x_47 + x_48 + x_49 + x_50 + x_51
      + x_52 + x_53 + x_54 + x_55 + x_56 + x_57 + x_58 + x_59 + x_60 + x_61
      + x_62 + x_63 + x_64 + x_65 + x_66 + x_67 + x_68 + x_69 + x_70 + x_71
      + x_72 + x_73 + x_74 + x_75 + x_76 + x_77 + x_78 + x_79 + x_80 + x_81
      + x_82 + x_83 + x_84 + x_85 + x_86 + x_87 + x_88 + x_89 + x_90 + x_91
      + x_92 + x_93 + x_94 + x_95 + x_96 + x_97 + x_98 + x_99 + x_100 + x_101
      + x_102 + x_103 + x_104 + x_105 + x_106 + x_107 + x_108 + x_109 + x_110
      + x_111 + x_112 + x_113 + x_114 + x_115 + x_116 + x_117 + x_118 + x_119
      - 119.90247731641 z
Subject To
 c1:   x_0 - z - y_0 >= 0
 c2:   x_1 - z - y_1 >= 0
 c3:   x_2 - z - y_2 >= 0
 c4:   x_3 - z - y_3 >= 0
 c5:   x_4 - z - y_4 >= 0
 c6:   x_5 - z - y_5 >= 0
 c7:   x_6 - z - y_6 >= 0
 c8:   x_7 - z - y_7 >= 0
 c9:   x_8 - z - y_8 >= 0
 c10:  x_9 - z - y_9 >= 0
 c11:  x_10 - z - y_10 >= 0
 c12:  x_11 - z - y_11 >= 0
 c13:  x_12 - z - y_12 >= 0
 c14:  x_13 - z - y_13 >= 0
 c15:  x_14 - z - y_14 >= 0
 c16:  x_15 - z - y_15 >= 0
 c17:  x_16 - z - y_16 >= 0
 c18:  x_17 - z - y_17 >= 0
 c19:  x_18 - z - y_18 >= 0
 c20:  x_19 - z - y_19 >= 0
 c21:  x_20 - z - y_20 >= 0
 c22:  x_21 - z - y_21 >= 0
 c23:  x_22 - z - y_22 >= 0
 c24:  x_23 - z - y_23 >= 0
 c25:  x_24 - z - y_24 >= 0
 c26:  x_25 - z - y_25 >= 0
 c27:  x_26 - z - y_26 >= 0
 c28:  x_27 - z - y_27 >= 0
 c29:  x_28 - z - y_28 >= 0
 c30:  x_29 - z - y_29 >= 0
 c31:  x_30 - z - y_30 >= 0
 c32:  x_31 - z - y_31 >= 0
 c33:  x_32 - z - y_32 >= 0
 c34:  x_33 - z - y_33 >= 0
 c35:  x_34 - z - y_34 >= 0
 c36:  x_35 - z - y_35 >= 0
 c37:  x_36 - z - y_36 >= 0
 c38:  x_37 - z - y_37 >= 0
 c39:  x_38 - z - y_38 >= 0
 c40:  x_39 - z - y_39 >= 0
 c41:  x_40 - z - y_40 >= 0
 c42:  x_41 - z - y_41 >= 0
 c43:  x_42 - z - y_42 >= 0
 c44:  x_43 - z - y_43 >= 0
 c45:  x_44 - z - y_44 >= 0
 c46:  x_45 - z - y_45 >= 0
 c47:  x_46 - z - y_46 >= 0
 c48:  x_47 - z - y_47 >= 0
 c49:  x_48 - z - y_48 >= 0
 c50:  x_49 - z - y_49 >= 0
 c51:  x_50 - z - y_50 >= 0
 c52:  x_51 - z - y_51 >= 0
 c53:  x_52 - z - y_52 >= 0
 c54:  x_53 - z - y_53 >= 0
 c55:  x_54 - z - y_54 >= 0
 c56:  x_55 - z - y_55 >= 0
 c57:  x_56 - z - y_56 >= 0
 c58:  x_57 - z - y_57 >= 0
 c59:  x_58 - z - y_58 >= 0
 c60:  x_59 - z - y_59 >= 0
 c61:  x_60 - z - y_60 >= 0
 c62:  x_61 - z - y_61 >= 0
 c63:  x_62 - z - y_62 >= 0
 c64:  x_63 - z - y_63 >= 0
 c65:  x_64 - z - y_64 >= 0
 c66:  x_65 - z - y_65 >= 0
 c67:  x_66 - z - y_66 >= 0
 c68:  x_67 - z - y_67 >= 0
 c69:  x_68 - z - y_68 >= 0
 c70:  x_69 - z - y_69 >= 0
 c71:  x_70 - z - y_70 >= 0
 c72:  x_71 - z - y_71 >= 0
 c73:  x_72 - z - y_72 >= 0
 c74:  x_73 - z - y_73 >= 0
 c75:  x_74 - z - y_74 >= 0
 c76:  x_75 - z - y_75 >= 0
 c77:  x_76 - z - y_76 >= 0
 c78:  x_77 - z - y_77 >= 0
 c79:  x_78 - z - y_78 >= 0
 c80:  x_79 - z - y_79 >= 0
 c81:  x_80 - z - y_80 >= 0
 c82:  x_81 - z - y_81 >= 0
 c83:  x_82 - z - y_82 >= 0
 c84:  x_83 - z - y_83 >= 0
 c85:  x_84 - z - y_84 >= 0
 c86:  x_85 - z - y_85 >= 0
 c87:  x_86 - z - y_86 >= 0
 c88:  x_87 - z - y_87 >= 0
 c89:  x_88 - z - y_88 >= 0
 c90:  x_89 - z - y_89 >= 0
 c91:  x_90 - z - y_90 >= 0
 c92:  x_91 - z - y_91 >= 0
 c93:  x_92 - z - y_92 >= 0
 c94:  x_93 - z - y_93 >= 0
 c95:  x_94 - z - y_94 >= 0
 c96:  x_95 - z - y_95 >= 0
 c97:  x_96 - z - y_96 >= 0
 c98:  x_97 - z - y_97 >= 0
 c99:  x_98 - z - y_98 >= 0
 c100: x_99 - z - y_99 >= 0
 c101: x_100 - z - y_100 >= 0
 c102: x_101 - z - y_101 >= 0
 c103: x_102 - z - y_102 >= 0
 c104: x_103 - z - y_103 >= 0
 c105: x_104 - z - y_104 >= 0
 c106: x_105 - z - y_105 >= 0
 c107: x_106 - z - y_106 >= 0
 c108: x_107 - z - y_107 >= 0
 c109: x_108 - z - y_108 >= 0
 c110: x_109 - z - y_109 >= 0
 c111: x_110 - z - y_110 >= 0
 c112: x_111 - z - y_111 >= 0
 c113: x_112 - z - y_112 >= 0
 c114: x_113 - z - y_113 >= 0
 c115: x_114 - z - y_114 >= 0
 c116: x_115 - z - y_115 >= 0
 c117: x_116 - z - y_116 >= 0
 c118: x_117 - z - y_117 >= 0
 c119: x_118 - z - y_118 >= 0
 c120: x_119 - z - y_119 >= 0
 c121: x_0 + x_1 + x_2 + x_3 + x_4 + x_5 + x_6 + x_7 + x_8 + x_9 + x_10 + x_11
       + x_12 + x_13 + x_14 + x_15 + x_16 + x_17 + x_18 + x_19 + x_20 + x_21
       + x_22 + x_23 + x_24 + x_25 + x_26 + x_27 + x_28 + x_29 + x_30 + x_31
       + x_32 + x_33 + x_34 + x_35 + x_36 + x_37 + x_38 + x_39 + x_40 + x_41
       + x_42 + x_43 + x_44 + x_45 + x_46 + x_47 + x_48 + x_49 + x_50 + x_51
       + x_52 + x_53 + x_54 + x_55 + x_56 + x_57 + x_58 + x_59 + x_60 + x_61
       + x_62 + x_63 + x_64 + x_65 + x_66 + x_67 + x_68 + x_69 + x_70 + x_71
       + x_72 + x_73 + x_74 + x_75 + x_76 + x_77 + x_78 + x_79 + x_80 + x_81
       + x_82 + x_83 + x_84 + x_85 + x_86 + x_87 + x_88 + x_89 + x_90 + x_91
       + x_92 + x_93 + x_94 + x_95 + x_96 + x_97 + x_98 + x_99 + x_100 + x_101
       + x_102 + x_103 + x_104 + x_105 + x_106 + x_107 + x_108 + x_109 + x_110
       + x_111 + x_112 + x_113 + x_114 + x_115 + x_116 + x_117 + x_118 + x_119
       + 10.9544511501033 z + y_0 + y_1 + y_2 + y_3 + y_4 + y_5 + y_6 + y_7
       + y_8 + y_9 + y_10 + y_11 + y_12 + y_13 + y_14 + y_15 + y_16 + y_17
       + y_18 + y_19 + y_20 + y_21 + y_22 + y_23 + y_24 + y_25 + y_26 + y_27
       + y_28 + y_29 + y_30 + y_31 + y_32 + y_33 + y_34 + y_35 + y_36 + y_37
       + y_38 + y_39 + y_40 + y_41 + y_42 + y_43 + y_44 + y_45 + y_46 + y_47
       + y_48 + y_49 + y_50 + y_51 + y_52 + y_53 + y_54 + y_55 + y_56 + y_57
       + y_58 + y_59 + y_60 + y_61 + y_62 + y_63 + y_64 + y_65 + y_66 + y_67
       + y_68 + y_69 + y_70 + y_71 + y_72 + y_73 + y_74 + y_75 + y_76 + y_77
       + y_78 + y_79 + y_80 + y_81 + y_82 + y_83 + y_84 + y_85 + y_86 + y_87
       + y_88 + y_89 + y_90 + y_91 + y_92 + y_93 + y_94 + y_95 + y_96 + y_97
       + y_98 + y_99 + y_100 + y_101 + y_102 + y_103 + y_104 + y_105 + y_106
       + y_107 + y_108 + y_109 + y_110 + y_111 + y_112 + y_113 + y_114 + y_115
       + y_116 + y_117 + y_118 + y_119 >= 1
End
